
  32    4
  10   10   10   10

   0   0   0   0   0   2 2 29 
   2  10  10  10  10   2 26 3 
  10  10  10  10  10   1 4 
   7  10  10  10  10   1 5 
  10  10  10  10  10   1 6 
   5  10  10  10  10   1 7 
   5  10  10  10  10   1 8 
   2  10  10  10  10   1 9 
  10  10  10  10  10   1 10 
   5  10  10  10  10   1 11 
   2  10  10  10  10   1 12 
   9  10  10  10  10   1 13 
   3  10  10  10  10   1 14 
   4  10  10  10  10   1 15 
   5  10  10  10  10   1 16 
   9  10  10  10  10   1 17 
   8  10  10  10  10   1 18 
   9  10  10  10  10   1 19 
   5  10  10  10  10   1 20 
   4  10  10  10  10   1 21 
   4  10  10  10  10   1 22 
   7  10  10  10  10   1 23 
  10  10  10  10  10   1 24 
   9  10  10  10  10   1 25 
   9  10  10  10  10   1 27 
  10  10  10  10  10   1 27 
   1  10  10  10  10   2 31 28 
  10  10  10  10  10   1 30 
   6  10  10  10  10   1 30 
   1  10  10  10  10   1 32
   1  10  10  10  10   1 32
   0   0   0   0   0   0 
